#=======================================================
# FHI-aims file: mp_geometry_files/062.BaSi2/geometry.in
# Created using the Atomic Simulation Environment (ASE)
# Fri Apr 24 12:34:30 2020

# Additional information:
#  mp_id: mp-1477
#  spacegroup: 62
#=======================================================
lattice_vector 6.7644529899999997 0.0000000000000000 0.0000000000000000 
lattice_vector 0.0000000000000000 9.0640456399999998 0.0000000000000000 
lattice_vector 0.0000000000000000 0.0000000000000000 11.5878794599999999 
atom_frac 0.1793189161350642 0.3173689701111219 0.6620596106612430 Ba
atom_frac 0.1793189161350642 0.1500540501111219 0.2606500606612430 Ba
atom_frac 0.6793189161350641 0.2924243501111218 0.0447227906612430 Ba
atom_frac 0.6793189161350641 0.9597392701111218 0.7606500606612430 Ba
atom_frac 0.6793189161350641 0.7924243501111218 0.1620596106612430 Ba
atom_frac 0.6793189161350641 0.4597392701111218 0.4461323406612430 Ba
atom_frac 0.1793189161350642 0.8173689701111218 0.5447227906612430 Ba
atom_frac 0.1793189161350642 0.6500540501111218 0.9461323406612431 Ba
atom_frac 0.8571595161350640 0.1086900601111219 0.5008629706612429 Si
atom_frac 0.3571595161350642 0.5011032601111218 0.2059194306612430 Si
atom_frac 0.6793189161350641 0.1061126501111219 0.3209410306612430 Si
atom_frac 0.1793189161350642 0.7212113801111220 0.2618801706612430 Si
atom_frac 0.3571595161350642 0.0011032601111219 0.0008629706612430 Si
atom_frac 0.8571595161350640 0.6086900601111218 0.7059194306612430 Si
atom_frac 0.6793189161350641 0.8885819401111219 0.4449022306612431 Si
atom_frac 0.5014783161350641 0.6086900601111218 0.7059194306612430 Si
atom_frac 0.0014783161350642 0.0011032601111219 0.0008629706612430 Si
atom_frac 0.1793189161350642 0.2212113801111219 0.9449022306612430 Si
atom_frac 0.1793189161350642 0.0036806701111219 0.8209410306612431 Si
atom_frac 0.1793189161350642 0.5036806701111218 0.3858413706612429 Si
atom_frac 0.0014783161350642 0.5011032601111218 0.2059194306612430 Si
atom_frac 0.6793189161350641 0.3885819401111218 0.7618801706612430 Si
atom_frac 0.6793189161350641 0.6061126501111218 0.8858413706612430 Si
atom_frac 0.5014783161350641 0.1086900601111219 0.5008629706612429 Si
