#=======================================================
#FHI-aims file: geometry.in-prim
#Created using the Atomic Simulation Environment (ASE)
#=======================================================
lattice_vector 6.2276860291981224 -1.5412451821921482 0.0000000000000000 
lattice_vector 6.2276860291981224 1.5412451821921482 0.0000000000000000 
lattice_vector -1.3902871103774577 0.0000000000000000 5.7080621005119694 
atom 11.0508649752733721 0.0000000000000004 1.1722509723348888 Ga
atom 0.0142199727454144 0.0000000000000001 4.5358111281770794 Ga
atom 7.7653096230620404 -0.0000000000000002 1.7928084968249296 Ga
atom 3.2997753249567459 -0.0000000000000001 3.9152536036870398 Ga
atom 9.1808303433192062 0.0000000000000004 5.0854617190429856 O
atom 1.8842546046995821 0.0000000000000002 0.6226003814689840 O
atom 5.2433925595303190 0.0000000000000000 4.2424591752741296 O
atom 5.8216923884884677 0.0000000000000000 1.4656029252378400 O
atom 1.3791129408345688 0.0000000000000001 3.2216950720872646 O
atom 9.6859720071842172 0.0000000000000000 2.4863670284247048 O
