 
  lattice_vector        -0.00018917        2.81747850        2.81753416
  lattice_vector         2.81799499        0.00015398        2.81799330
  lattice_vector         2.81744218        2.81738400       -0.00021019

            atom         0.00000132        0.00708130       -0.00704866  Si
            atom         1.40880791        1.41575897        1.40178696  Si
