 lattice_vector        -2.00684730        2.52125972        4.26394334
  lattice_vector         1.27456164        0.16933581        1.39747613
  lattice_vector         4.16126201        2.74744882       -1.68472688

            atom        -0.26652748       -0.57227260        0.73515102  Si
            atom         1.20599698        2.01651482        0.34003734  Si
