lattice_vector   3.191413920000      0.000000000000      0.000000000000
lattice_vector  -1.595706960000      2.763845528710      0.000000000000
lattice_vector   0.000000000000      0.000000000000      5.202004689600
atom_frac 0.33333333333333  0.66666666666667  1. Ga
atom_frac 0.66666666666667  0.33333333333333  .5 Ga
atom_frac 0.33333333333333  0.66666666666667  0.376638127419 N
atom_frac 0.66666666666667  0.33333333333333  0.876638127419 N
