#=====================================================
# libflo:  geometry.in 
#   Date:    2018-09-26 14:38:49
#=====================================================
#   Material:          Se4Sn4
#   No. atoms:         8
#   Spacegroup:        62
#   Wyckoff positions: c c c c c c c c
#   Unit cell volume:  204.816353 AA^3
#   Tag  1:            None
  lattice_vector  4.17752158000000e+00  0.00000000000000e+00  0.00000000000000e+00
  lattice_vector  0.00000000000000e+00  4.28794539000000e+00  0.00000000000000e+00
  lattice_vector  0.00000000000000e+00  0.00000000000000e+00  1.14339603100000e+01
  atom_frac   7.50000000000000e-01  2.13055699999999e-02  3.59969530000000e-01  Se 
  atom_frac   2.50000000000000e-01  5.21305570000000e-01  1.40030470000000e-01  Se 
  atom_frac   2.50000000000000e-01  9.78694430000000e-01  6.40030470000000e-01  Se 
  atom_frac   7.50000000000000e-01  4.78694430000000e-01  8.59969530000000e-01  Se 
  atom_frac   7.50000000000000e-01  7.30933099999999e-02  1.19895290000000e-01  Sn 
  atom_frac   2.50000000000000e-01  5.73093310000000e-01  3.80104710000000e-01  Sn 
  atom_frac   2.50000000000000e-01  9.26906690000000e-01  8.80104710000000e-01  Sn 
  atom_frac   7.50000000000000e-01  4.26906690000000e-01  6.19895290000000e-01  Sn 
