#=======================================================
#FHI-aims file: geometry.in-prim
#Created using the Atomic Simulation Environment (ASE)
#=======================================================
lattice_vector 0.0000000000000000 2.72 2.72
lattice_vector 2.72 0.0000000000000000 2.72
lattice_vector 2.72 2.72 0.0000000000000000 
atom_frac 0. 0. 0. Si
atom_frac .25 .25 .25 Si
