#=====================================================
# libflo:  geometry.in 
#   Date:    2018-07-08 21:04:34
#=====================================================
#   Material:          Al256
#   No. atoms:         256
#   Unit cell volume:  4059.782594 AA^3
  lattice_vector  1.57562980034339e+01  2.49555244086049e+00  0.00000000000000e+00
  lattice_vector -2.49555244086049e+00  1.57562980034339e+01  0.00000000000000e+00
  lattice_vector  0.00000000000000e+00  0.00000000000000e+00  1.59527022400000e+01
  atom_frac   6.26853046559465e-04  0.00000000000000e+00  0.00000000000000e+00  Al 
  atom_frac   1.25000000000000e-01  1.25000000000000e-01  0.00000000000000e+00  Al 
  atom_frac   1.25000000000000e-01  0.00000000000000e+00  1.25000000000000e-01  Al 
  atom_frac   0.00000000000000e+00  0.00000000000000e+00  2.50000000000000e-01  Al 
  atom_frac   1.25000000000000e-01  2.50000000000000e-01  1.25000000000000e-01  Al 
  atom_frac   2.50000000000000e-01  1.25000000000000e-01  1.25000000000000e-01  Al 
  atom_frac   1.25000000000000e-01  1.25000000000000e-01  2.50000000000000e-01  Al 
  atom_frac   2.50000000000000e-01  2.50000000000000e-01  0.00000000000000e+00  Al 
  atom_frac   2.50000000000000e-01  0.00000000000000e+00  2.50000000000000e-01  Al 
  atom_frac   1.25000000000000e-01  0.00000000000000e+00  3.75000000000000e-01  Al 
  atom_frac   0.00000000000000e+00  1.25000000000000e-01  3.75000000000000e-01  Al 
  atom_frac   2.50000000000000e-01  2.50000000000000e-01  2.50000000000000e-01  Al 
  atom_frac   3.75000000000000e-01  1.25000000000000e-01  2.50000000000000e-01  Al 
  atom_frac   3.75000000000000e-01  2.50000000000000e-01  1.25000000000000e-01  Al 
  atom_frac   1.25000000000000e-01  2.50000000000000e-01  3.75000000000000e-01  Al 
  atom_frac   2.50000000000000e-01  3.75000000000000e-01  1.25000000000000e-01  Al 
  atom_frac   1.25000000000000e-01  3.75000000000000e-01  2.50000000000000e-01  Al 
  atom_frac   2.50000000000000e-01  1.25000000000000e-01  3.75000000000000e-01  Al 
  atom_frac   0.00000000000000e+00  5.00000000000000e-01  0.00000000000000e+00  Al 
  atom_frac   5.00000000000000e-01  0.00000000000000e+00  0.00000000000000e+00  Al 
  atom_frac   0.00000000000000e+00  0.00000000000000e+00  5.00000000000000e-01  Al 
  atom_frac   3.75000000000000e-01  0.00000000000000e+00  3.75000000000000e-01  Al 
  atom_frac   3.75000000000000e-01  3.75000000000000e-01  0.00000000000000e+00  Al 
  atom_frac   1.25000000000000e-01  5.00000000000000e-01  1.25000000000000e-01  Al 
  atom_frac   5.00000000000000e-01  1.25000000000000e-01  1.25000000000000e-01  Al 
  atom_frac   1.25000000000000e-01  1.25000000000000e-01  5.00000000000000e-01  Al 
  atom_frac   2.50000000000000e-01  0.00000000000000e+00  5.00000000000000e-01  Al 
  atom_frac   0.00000000000000e+00  2.50000000000000e-01  5.00000000000000e-01  Al 
  atom_frac   2.50000000000000e-01  3.75000000000000e-01  3.75000000000000e-01  Al 
  atom_frac   3.75000000000000e-01  2.50000000000000e-01  3.75000000000000e-01  Al 
  atom_frac   3.75000000000000e-01  3.75000000000000e-01  2.50000000000000e-01  Al 
  atom_frac   2.50000000000000e-01  2.50000000000000e-01  5.00000000000000e-01  Al 
  atom_frac   5.00000000000000e-01  2.50000000000000e-01  2.50000000000000e-01  Al 
  atom_frac   2.50000000000000e-01  5.00000000000000e-01  2.50000000000000e-01  Al 
  atom_frac   1.25000000000000e-01  0.00000000000000e+00  6.25000000000000e-01  Al 
  atom_frac   1.25000000000000e-01  5.00000000000000e-01  3.75000000000000e-01  Al 
  atom_frac   0.00000000000000e+00  6.25000000000000e-01  1.25000000000000e-01  Al 
  atom_frac   6.25000000000000e-01  0.00000000000000e+00  1.25000000000000e-01  Al 
  atom_frac   0.00000000000000e+00  1.25000000000000e-01  6.25000000000000e-01  Al 
  atom_frac   3.75000000000000e-01  5.00000000000000e-01  1.25000000000000e-01  Al 
  atom_frac   5.00000000000000e-01  1.25000000000000e-01  3.75000000000000e-01  Al 
  atom_frac   5.00000000000000e-01  3.75000000000000e-01  1.25000000000000e-01  Al 
  atom_frac   3.75000000000000e-01  1.25000000000000e-01  5.00000000000000e-01  Al 
  atom_frac   6.25000000000000e-01  1.25000000000000e-01  0.00000000000000e+00  Al 
  atom_frac   1.25000000000000e-01  6.25000000000000e-01  0.00000000000000e+00  Al 
  atom_frac   1.25000000000000e-01  3.75000000000000e-01  5.00000000000000e-01  Al 
  atom_frac   6.25000000000000e-01  1.25000000000000e-01  2.50000000000000e-01  Al 
  atom_frac   1.25000000000000e-01  2.50000000000000e-01  6.25000000000000e-01  Al 
  atom_frac   1.25000000000000e-01  6.25000000000000e-01  2.50000000000000e-01  Al 
  atom_frac   2.50000000000000e-01  6.25000000000000e-01  1.25000000000000e-01  Al 
  atom_frac   6.25000000000000e-01  2.50000000000000e-01  1.25000000000000e-01  Al 
  atom_frac   2.50000000000000e-01  1.25000000000000e-01  6.25000000000000e-01  Al 
  atom_frac   5.00000000000000e-01  0.00000000000000e+00  5.00000000000000e-01  Al 
  atom_frac   5.00000000000000e-01  5.00000000000000e-01  0.00000000000000e+00  Al 
  atom_frac   3.75000000000000e-01  5.00000000000000e-01  3.75000000000000e-01  Al 
  atom_frac   3.75000000000000e-01  3.75000000000000e-01  5.00000000000000e-01  Al 
  atom_frac   3.75000000000000e-01  0.00000000000000e+00  6.25000000000000e-01  Al 
  atom_frac   5.00000000000000e-01  3.75000000000000e-01  3.75000000000000e-01  Al 
  atom_frac   3.75000000000000e-01  6.25000000000000e-01  0.00000000000000e+00  Al 
  atom_frac   0.00000000000000e+00  3.75000000000000e-01  6.25000000000000e-01  Al 
  atom_frac   6.25000000000000e-01  3.75000000000000e-01  0.00000000000000e+00  Al 
  atom_frac   7.50000000000000e-01  0.00000000000000e+00  0.00000000000000e+00  Al 
  atom_frac   5.00000000000000e-01  2.50000000000000e-01  5.00000000000000e-01  Al 
  atom_frac   0.00000000000000e+00  7.50000000000000e-01  0.00000000000000e+00  Al 
  atom_frac   5.00000000000000e-01  5.00000000000000e-01  2.50000000000000e-01  Al 
  atom_frac   2.50000000000000e-01  5.00000000000000e-01  5.00000000000000e-01  Al 
  atom_frac   2.50000000000000e-01  6.25000000000000e-01  3.75000000000000e-01  Al 
  atom_frac   1.25000000000000e-01  7.50000000000000e-01  1.25000000000000e-01  Al 
  atom_frac   2.50000000000000e-01  3.75000000000000e-01  6.25000000000000e-01  Al 
  atom_frac   3.75000000000000e-01  6.25000000000000e-01  2.50000000000000e-01  Al 
  atom_frac   7.50000000000000e-01  1.25000000000000e-01  1.25000000000000e-01  Al 
  atom_frac   3.75000000000000e-01  2.50000000000000e-01  6.25000000000000e-01  Al 
  atom_frac   6.25000000000000e-01  2.50000000000000e-01  3.75000000000000e-01  Al 
  atom_frac   1.25000000000000e-01  1.25000000000000e-01  7.50000000000000e-01  Al 
  atom_frac   6.25000000000000e-01  3.75000000000000e-01  2.50000000000000e-01  Al 
  atom_frac   2.50000000000000e-01  7.50000000000000e-01  0.00000000000000e+00  Al 
  atom_frac   7.50000000000000e-01  0.00000000000000e+00  2.50000000000000e-01  Al 
  atom_frac   2.50000000000000e-01  0.00000000000000e+00  7.50000000000000e-01  Al 
  atom_frac   0.00000000000000e+00  2.50000000000000e-01  7.50000000000000e-01  Al 
  atom_frac   0.00000000000000e+00  7.50000000000000e-01  2.50000000000000e-01  Al 
  atom_frac   7.50000000000000e-01  2.50000000000000e-01  0.00000000000000e+00  Al 
  atom_frac   6.25000000000000e-01  1.25000000000000e-01  5.00000000000000e-01  Al 
  atom_frac   5.00000000000000e-01  6.25000000000000e-01  1.25000000000000e-01  Al 
  atom_frac   5.00000000000000e-01  1.25000000000000e-01  6.25000000000000e-01  Al 
  atom_frac   1.25000000000000e-01  5.00000000000000e-01  6.25000000000000e-01  Al 
  atom_frac   1.25000000000000e-01  6.25000000000000e-01  5.00000000000000e-01  Al 
  atom_frac   6.25000000000000e-01  5.00000000000000e-01  1.25000000000000e-01  Al 
  atom_frac   2.50000000000000e-01  7.50000000000000e-01  2.50000000000000e-01  Al 
  atom_frac   7.50000000000000e-01  2.50000000000000e-01  2.50000000000000e-01  Al 
  atom_frac   2.50000000000000e-01  2.50000000000000e-01  7.50000000000000e-01  Al 
  atom_frac   1.25000000000000e-01  7.50000000000000e-01  3.75000000000000e-01  Al 
  atom_frac   3.75000000000000e-01  1.25000000000000e-01  7.50000000000000e-01  Al 
  atom_frac   3.75000000000000e-01  7.50000000000000e-01  1.25000000000000e-01  Al 
  atom_frac   7.50000000000000e-01  1.25000000000000e-01  3.75000000000000e-01  Al 
  atom_frac   7.50000000000000e-01  3.75000000000000e-01  1.25000000000000e-01  Al 
  atom_frac   1.25000000000000e-01  3.75000000000000e-01  7.50000000000000e-01  Al 
  atom_frac   5.00000000000000e-01  5.00000000000000e-01  5.00000000000000e-01  Al 
  atom_frac   5.00000000000000e-01  6.25000000000000e-01  3.75000000000000e-01  Al 
  atom_frac   8.75000000000000e-01  0.00000000000000e+00  1.25000000000000e-01  Al 
  atom_frac   5.00000000000000e-01  3.75000000000000e-01  6.25000000000000e-01  Al 
  atom_frac   3.75000000000000e-01  6.25000000000000e-01  5.00000000000000e-01  Al 
  atom_frac   3.75000000000000e-01  5.00000000000000e-01  6.25000000000000e-01  Al 
  atom_frac   6.25000000000000e-01  3.75000000000000e-01  5.00000000000000e-01  Al 
  atom_frac   0.00000000000000e+00  8.75000000000000e-01  1.25000000000000e-01  Al 
  atom_frac   6.25000000000000e-01  5.00000000000000e-01  3.75000000000000e-01  Al 
  atom_frac   6.25000000000000e-01  0.00000000000000e+00  6.25000000000000e-01  Al 
  atom_frac   6.25000000000000e-01  6.25000000000000e-01  0.00000000000000e+00  Al 
  atom_frac   7.50000000000000e-01  5.00000000000000e-01  0.00000000000000e+00  Al 
  atom_frac   0.00000000000000e+00  5.00000000000000e-01  7.50000000000000e-01  Al 
  atom_frac   5.00000000000000e-01  7.50000000000000e-01  0.00000000000000e+00  Al 
  atom_frac   5.00000000000000e-01  0.00000000000000e+00  7.50000000000000e-01  Al 
  atom_frac   8.75000000000000e-01  1.25000000000000e-01  2.50000000000000e-01  Al 
  atom_frac   6.25000000000000e-01  2.50000000000000e-01  6.25000000000000e-01  Al 
  atom_frac   2.50000000000000e-01  8.75000000000000e-01  1.25000000000000e-01  Al 
  atom_frac   3.75000000000000e-01  7.50000000000000e-01  3.75000000000000e-01  Al 
  atom_frac   8.75000000000000e-01  2.50000000000000e-01  1.25000000000000e-01  Al 
  atom_frac   3.75000000000000e-01  3.75000000000000e-01  7.50000000000000e-01  Al 
  atom_frac   1.25000000000000e-01  8.75000000000000e-01  2.50000000000000e-01  Al 
  atom_frac   1.25000000000000e-01  2.50000000000000e-01  8.75000000000000e-01  Al 
  atom_frac   2.50000000000000e-01  1.25000000000000e-01  8.75000000000000e-01  Al 
  atom_frac   2.50000000000000e-01  6.25000000000000e-01  6.25000000000000e-01  Al 
  atom_frac   6.25000000000000e-01  6.25000000000000e-01  2.50000000000000e-01  Al 
  atom_frac   7.50000000000000e-01  3.75000000000000e-01  3.75000000000000e-01  Al 
  atom_frac   2.50000000000000e-01  7.50000000000000e-01  5.00000000000000e-01  Al 
  atom_frac   7.50000000000000e-01  5.00000000000000e-01  2.50000000000000e-01  Al 
  atom_frac   2.50000000000000e-01  5.00000000000000e-01  7.50000000000000e-01  Al 
  atom_frac   5.00000000000000e-01  7.50000000000000e-01  2.50000000000000e-01  Al 
  atom_frac   5.00000000000000e-01  2.50000000000000e-01  7.50000000000000e-01  Al 
  atom_frac   7.50000000000000e-01  2.50000000000000e-01  5.00000000000000e-01  Al 
  atom_frac   0.00000000000000e+00  8.75000000000000e-01  3.75000000000000e-01  Al 
  atom_frac   3.75000000000000e-01  0.00000000000000e+00  8.75000000000000e-01  Al 
  atom_frac   8.75000000000000e-01  3.75000000000000e-01  0.00000000000000e+00  Al 
  atom_frac   8.75000000000000e-01  0.00000000000000e+00  3.75000000000000e-01  Al 
  atom_frac   0.00000000000000e+00  3.75000000000000e-01  8.75000000000000e-01  Al 
  atom_frac   3.75000000000000e-01  8.75000000000000e-01  0.00000000000000e+00  Al 
  atom_frac   7.50000000000000e-01  6.25000000000000e-01  1.25000000000000e-01  Al 
  atom_frac   6.25000000000000e-01  1.25000000000000e-01  7.50000000000000e-01  Al 
  atom_frac   3.75000000000000e-01  8.75000000000000e-01  2.50000000000000e-01  Al 
  atom_frac   8.75000000000000e-01  3.75000000000000e-01  2.50000000000000e-01  Al 
  atom_frac   3.75000000000000e-01  2.50000000000000e-01  8.75000000000000e-01  Al 
  atom_frac   1.25000000000000e-01  7.50000000000000e-01  6.25000000000000e-01  Al 
  atom_frac   1.25000000000000e-01  6.25000000000000e-01  7.50000000000000e-01  Al 
  atom_frac   7.50000000000000e-01  1.25000000000000e-01  6.25000000000000e-01  Al 
  atom_frac   6.25000000000000e-01  7.50000000000000e-01  1.25000000000000e-01  Al 
  atom_frac   2.50000000000000e-01  8.75000000000000e-01  3.75000000000000e-01  Al 
  atom_frac   8.75000000000000e-01  2.50000000000000e-01  3.75000000000000e-01  Al 
  atom_frac   2.50000000000000e-01  3.75000000000000e-01  8.75000000000000e-01  Al 
  atom_frac   8.75000000000000e-01  5.00000000000000e-01  1.25000000000000e-01  Al 
  atom_frac   5.00000000000000e-01  8.75000000000000e-01  1.25000000000000e-01  Al 
  atom_frac   6.25000000000000e-01  6.25000000000000e-01  5.00000000000000e-01  Al 
  atom_frac   0.00000000000000e+00  1.25000000000000e-01  1.25000000000000e-01  Al 
  atom_frac   1.25000000000000e-01  5.00000000000000e-01  8.75000000000000e-01  Al 
  atom_frac   8.75000000000000e-01  1.25000000000000e-01  5.00000000000000e-01  Al 
  atom_frac   5.00000000000000e-01  1.25000000000000e-01  8.75000000000000e-01  Al 
  atom_frac   1.25000000000000e-01  8.75000000000000e-01  5.00000000000000e-01  Al 
  atom_frac   6.25000000000000e-01  5.00000000000000e-01  6.25000000000000e-01  Al 
  atom_frac   5.00000000000000e-01  6.25000000000000e-01  6.25000000000000e-01  Al 
  atom_frac   7.50000000000000e-01  5.00000000000000e-01  5.00000000000000e-01  Al 
  atom_frac   5.00000000000000e-01  7.50000000000000e-01  5.00000000000000e-01  Al 
  atom_frac   5.00000000000000e-01  5.00000000000000e-01  7.50000000000000e-01  Al 
  atom_frac   7.50000000000000e-01  6.25000000000000e-01  3.75000000000000e-01  Al 
  atom_frac   6.25000000000000e-01  3.75000000000000e-01  7.50000000000000e-01  Al 
  atom_frac   3.75000000000000e-01  7.50000000000000e-01  6.25000000000000e-01  Al 
  atom_frac   7.50000000000000e-01  3.75000000000000e-01  6.25000000000000e-01  Al 
  atom_frac   3.75000000000000e-01  6.25000000000000e-01  7.50000000000000e-01  Al 
  atom_frac   6.25000000000000e-01  7.50000000000000e-01  3.75000000000000e-01  Al 
  atom_frac   7.50000000000000e-01  7.50000000000000e-01  0.00000000000000e+00  Al 
  atom_frac   0.00000000000000e+00  2.50000000000000e-01  2.50000000000000e-01  Al 
  atom_frac   7.50000000000000e-01  0.00000000000000e+00  7.50000000000000e-01  Al 
  atom_frac   3.75000000000000e-01  1.25000000000000e-01  0.00000000000000e+00  Al 
  atom_frac   3.75000000000000e-01  5.00000000000000e-01  8.75000000000000e-01  Al 
  atom_frac   5.00000000000000e-01  8.75000000000000e-01  3.75000000000000e-01  Al 
  atom_frac   1.25000000000000e-01  3.75000000000000e-01  0.00000000000000e+00  Al 
  atom_frac   5.00000000000000e-01  3.75000000000000e-01  8.75000000000000e-01  Al 
  atom_frac   8.75000000000000e-01  6.25000000000000e-01  0.00000000000000e+00  Al 
  atom_frac   3.75000000000000e-01  8.75000000000000e-01  5.00000000000000e-01  Al 
  atom_frac   0.00000000000000e+00  6.25000000000000e-01  8.75000000000000e-01  Al 
  atom_frac   8.75000000000000e-01  5.00000000000000e-01  3.75000000000000e-01  Al 
  atom_frac   0.00000000000000e+00  3.75000000000000e-01  1.25000000000000e-01  Al 
  atom_frac   3.75000000000000e-01  0.00000000000000e+00  1.25000000000000e-01  Al 
  atom_frac   6.25000000000000e-01  8.75000000000000e-01  0.00000000000000e+00  Al 
  atom_frac   6.25000000000000e-01  0.00000000000000e+00  8.75000000000000e-01  Al 
  atom_frac   8.75000000000000e-01  3.75000000000000e-01  5.00000000000000e-01  Al 
  atom_frac   2.50000000000000e-01  7.50000000000000e-01  7.50000000000000e-01  Al 
  atom_frac   7.50000000000000e-01  2.50000000000000e-01  7.50000000000000e-01  Al 
  atom_frac   7.50000000000000e-01  7.50000000000000e-01  2.50000000000000e-01  Al 
  atom_frac   8.75000000000000e-01  6.25000000000000e-01  2.50000000000000e-01  Al 
  atom_frac   8.75000000000000e-01  2.50000000000000e-01  6.25000000000000e-01  Al 
  atom_frac   2.50000000000000e-01  6.25000000000000e-01  8.75000000000000e-01  Al 
  atom_frac   6.25000000000000e-01  2.50000000000000e-01  8.75000000000000e-01  Al 
  atom_frac   2.50000000000000e-01  8.75000000000000e-01  6.25000000000000e-01  Al 
  atom_frac   6.25000000000000e-01  8.75000000000000e-01  2.50000000000000e-01  Al 
  atom_frac   0.00000000000000e+00  3.75000000000000e-01  3.75000000000000e-01  Al 
  atom_frac   2.50000000000000e-01  5.00000000000000e-01  0.00000000000000e+00  Al 
  atom_frac   0.00000000000000e+00  5.00000000000000e-01  2.50000000000000e-01  Al 
  atom_frac   5.00000000000000e-01  0.00000000000000e+00  2.50000000000000e-01  Al 
  atom_frac   5.00000000000000e-01  2.50000000000000e-01  0.00000000000000e+00  Al 
  atom_frac   6.25000000000000e-01  7.50000000000000e-01  6.25000000000000e-01  Al 
  atom_frac   7.50000000000000e-01  6.25000000000000e-01  6.25000000000000e-01  Al 
  atom_frac   1.25000000000000e-01  7.50000000000000e-01  8.75000000000000e-01  Al 
  atom_frac   8.75000000000000e-01  7.50000000000000e-01  1.25000000000000e-01  Al 
  atom_frac   7.50000000000000e-01  1.25000000000000e-01  8.75000000000000e-01  Al 
  atom_frac   6.25000000000000e-01  6.25000000000000e-01  7.50000000000000e-01  Al 
  atom_frac   1.25000000000000e-01  8.75000000000000e-01  7.50000000000000e-01  Al 
  atom_frac   7.50000000000000e-01  8.75000000000000e-01  1.25000000000000e-01  Al 
  atom_frac   8.75000000000000e-01  1.25000000000000e-01  7.50000000000000e-01  Al 
  atom_frac   7.50000000000000e-01  5.00000000000000e-01  7.50000000000000e-01  Al 
  atom_frac   7.50000000000000e-01  7.50000000000000e-01  5.00000000000000e-01  Al 
  atom_frac   5.00000000000000e-01  7.50000000000000e-01  7.50000000000000e-01  Al 
  atom_frac   8.75000000000000e-01  5.00000000000000e-01  6.25000000000000e-01  Al 
  atom_frac   6.25000000000000e-01  8.75000000000000e-01  5.00000000000000e-01  Al 
  atom_frac   5.00000000000000e-01  8.75000000000000e-01  6.25000000000000e-01  Al 
  atom_frac   5.00000000000000e-01  6.25000000000000e-01  8.75000000000000e-01  Al 
  atom_frac   6.25000000000000e-01  5.00000000000000e-01  8.75000000000000e-01  Al 
  atom_frac   8.75000000000000e-01  6.25000000000000e-01  5.00000000000000e-01  Al 
  atom_frac   8.75000000000000e-01  7.50000000000000e-01  3.75000000000000e-01  Al 
  atom_frac   3.75000000000000e-01  7.50000000000000e-01  8.75000000000000e-01  Al 
  atom_frac   3.75000000000000e-01  8.75000000000000e-01  7.50000000000000e-01  Al 
  atom_frac   7.50000000000000e-01  8.75000000000000e-01  3.75000000000000e-01  Al 
  atom_frac   8.75000000000000e-01  3.75000000000000e-01  7.50000000000000e-01  Al 
  atom_frac   7.50000000000000e-01  3.75000000000000e-01  8.75000000000000e-01  Al 
  atom_frac   0.00000000000000e+00  5.00000000000000e-01  5.00000000000000e-01  Al 
  atom_frac   6.25000000000000e-01  0.00000000000000e+00  3.75000000000000e-01  Al 
  atom_frac   0.00000000000000e+00  6.25000000000000e-01  3.75000000000000e-01  Al 
  atom_frac   8.75000000000000e-01  0.00000000000000e+00  8.75000000000000e-01  Al 
  atom_frac   8.75000000000000e-01  8.75000000000000e-01  0.00000000000000e+00  Al 
  atom_frac   2.50000000000000e-01  8.75000000000000e-01  8.75000000000000e-01  Al 
  atom_frac   8.75000000000000e-01  2.50000000000000e-01  8.75000000000000e-01  Al 
  atom_frac   8.75000000000000e-01  8.75000000000000e-01  2.50000000000000e-01  Al 
  atom_frac   7.50000000000000e-01  7.50000000000000e-01  7.50000000000000e-01  Al 
  atom_frac   7.50000000000000e-01  6.25000000000000e-01  8.75000000000000e-01  Al 
  atom_frac   8.75000000000000e-01  6.25000000000000e-01  7.50000000000000e-01  Al 
  atom_frac   7.50000000000000e-01  8.75000000000000e-01  6.25000000000000e-01  Al 
  atom_frac   6.25000000000000e-01  8.75000000000000e-01  7.50000000000000e-01  Al 
  atom_frac   6.25000000000000e-01  7.50000000000000e-01  8.75000000000000e-01  Al 
  atom_frac   8.75000000000000e-01  7.50000000000000e-01  6.25000000000000e-01  Al 
  atom_frac   0.00000000000000e+00  1.25000000000000e-01  8.75000000000000e-01  Al 
  atom_frac   8.75000000000000e-01  1.25000000000000e-01  0.00000000000000e+00  Al 
  atom_frac   8.75000000000000e-01  5.00000000000000e-01  8.75000000000000e-01  Al 
  atom_frac   8.75000000000000e-01  8.75000000000000e-01  5.00000000000000e-01  Al 
  atom_frac   5.00000000000000e-01  8.75000000000000e-01  8.75000000000000e-01  Al 
  atom_frac   1.25000000000000e-01  0.00000000000000e+00  8.75000000000000e-01  Al 
  atom_frac   1.25000000000000e-01  8.75000000000000e-01  0.00000000000000e+00  Al 
  atom_frac   0.00000000000000e+00  6.25000000000000e-01  6.25000000000000e-01  Al 
  atom_frac   0.00000000000000e+00  7.50000000000000e-01  5.00000000000000e-01  Al 
  atom_frac   7.50000000000000e-01  0.00000000000000e+00  5.00000000000000e-01  Al 
  atom_frac   2.50000000000000e-01  0.00000000000000e+00  0.00000000000000e+00  Al 
  atom_frac   0.00000000000000e+00  2.50000000000000e-01  0.00000000000000e+00  Al 
  atom_frac   7.50000000000000e-01  8.75000000000000e-01  8.75000000000000e-01  Al 
  atom_frac   8.75000000000000e-01  8.75000000000000e-01  7.50000000000000e-01  Al 
  atom_frac   8.75000000000000e-01  7.50000000000000e-01  8.75000000000000e-01  Al 
  atom_frac   0.00000000000000e+00  7.50000000000000e-01  7.50000000000000e-01  Al 
  atom_frac   8.75000000000000e-01  0.00000000000000e+00  6.25000000000000e-01  Al 
  atom_frac   0.00000000000000e+00  8.75000000000000e-01  6.25000000000000e-01  Al 
  atom_frac   0.00000000000000e+00  8.75000000000000e-01  8.75000000000000e-01  Al 
  atom_frac   0.00000000000000e+00  0.00000000000000e+00  7.50000000000000e-01  Al 
