#=======================================================
# FHI-aims file: geometry.in
# Created using the Atomic Simulation Environment (ASE)
# Mon Sep 30 22:22:17 2019
#=======================================================
lattice_vector 16.3313769600000001 -0.0000000000000005 0.0000000000000000 
lattice_vector -0.0000000000000005 16.3313769600000001 0.0000000000000000 
lattice_vector 0.0000000000000005 0.0000000000000005 16.3313769600000001 
atom_frac 0.2500000000000000 0.2500000000000000 0.2500000000000000 Si
atom_frac 0.2500000000000000 0.4166666666666667 0.4166666666666667 Si
atom_frac 0.2500000000000000 0.5833333333333334 0.5833333333333334 Si
atom_frac 0.2500000000000000 0.7500000000000000 0.7500000000000000 Si
atom_frac 0.2500000000000000 0.9166666666666666 0.9166666666666666 Si
atom_frac 0.2500000000000000 0.0833333333333333 0.0833333333333333 Si
atom_frac 0.4166666666666667 0.2500000000000000 0.4166666666666667 Si
atom_frac 0.4166666666666667 0.4166666666666667 0.5833333333333334 Si
atom_frac 0.4166666666666667 0.5833333333333334 0.7500000000000000 Si
atom_frac 0.4166666666666666 0.7500000000000000 0.9166666666666666 Si
atom_frac 0.4166666666666667 0.9166666666666666 0.0833333333333333 Si
atom_frac 0.4166666666666667 0.0833333333333333 0.2500000000000000 Si
atom_frac 0.5833333333333334 0.2500000000000000 0.5833333333333334 Si
atom_frac 0.5833333333333334 0.4166666666666667 0.7500000000000000 Si
atom_frac 0.5833333333333334 0.5833333333333334 0.9166666666666666 Si
atom_frac 0.5833333333333334 0.7500000000000000 0.0833333333333333 Si
atom_frac 0.5833333333333334 0.9166666666666666 0.2500000000000000 Si
atom_frac 0.5833333333333334 0.0833333333333333 0.4166666666666667 Si
atom_frac 0.7500000000000000 0.2500000000000000 0.7500000000000000 Si
atom_frac 0.7500000000000000 0.4166666666666666 0.9166666666666666 Si
atom_frac 0.7500000000000000 0.5833333333333334 0.0833333333333333 Si
atom_frac 0.7500000000000000 0.7500000000000000 0.2500000000000000 Si
atom_frac 0.7500000000000000 0.9166666666666666 0.4166666666666667 Si
atom_frac 0.7500000000000000 0.0833333333333333 0.5833333333333334 Si
atom_frac 0.9166666666666666 0.2500000000000000 0.9166666666666666 Si
atom_frac 0.9166666666666666 0.4166666666666667 0.0833333333333333 Si
atom_frac 0.9166666666666666 0.5833333333333334 0.2500000000000000 Si
atom_frac 0.9166666666666666 0.7500000000000000 0.4166666666666667 Si
atom_frac 0.9166666666666666 0.9166666666666666 0.5833333333333334 Si
atom_frac 0.9166666666666666 0.0833333333333333 0.7500000000000000 Si
atom_frac 0.0833333333333333 0.2500000000000000 0.0833333333333333 Si
atom_frac 0.0833333333333333 0.4166666666666667 0.2500000000000000 Si
atom_frac 0.0833333333333333 0.5833333333333334 0.4166666666666667 Si
atom_frac 0.0833333333333333 0.7500000000000000 0.5833333333333334 Si
atom_frac 0.0833333333333333 0.9166666666666666 0.7500000000000000 Si
atom_frac 0.0833333333333333 0.0833333333333333 0.9166666666666666 Si
atom_frac 0.4166666666666667 0.4166666666666667 0.2500000000000000 Si
atom_frac 0.4166666666666667 0.5833333333333334 0.4166666666666667 Si
atom_frac 0.4166666666666667 0.7500000000000000 0.5833333333333334 Si
atom_frac 0.4166666666666667 0.9166666666666666 0.7500000000000000 Si
atom_frac 0.4166666666666666 0.0833333333333333 0.9166666666666666 Si
atom_frac 0.4166666666666667 0.2500000000000000 0.0833333333333333 Si
atom_frac 0.5833333333333334 0.4166666666666667 0.4166666666666667 Si
atom_frac 0.5833333333333334 0.5833333333333334 0.5833333333333334 Si
atom_frac 0.5833333333333334 0.7500000000000000 0.7500000000000000 Si
atom_frac 0.5833333333333334 0.9166666666666666 0.9166666666666666 Si
atom_frac 0.5833333333333334 0.0833333333333333 0.0833333333333333 Si
atom_frac 0.5833333333333334 0.2500000000000000 0.2500000000000000 Si
atom_frac 0.7500000000000000 0.4166666666666667 0.5833333333333334 Si
atom_frac 0.7500000000000000 0.5833333333333334 0.7500000000000000 Si
atom_frac 0.7500000000000000 0.7500000000000000 0.9166666666666666 Si
atom_frac 0.7500000000000000 0.9166666666666666 0.0833333333333333 Si
atom_frac 0.7500000000000000 0.0833333333333333 0.2500000000000000 Si
atom_frac 0.7500000000000000 0.2500000000000000 0.4166666666666667 Si
atom_frac 0.9166666666666666 0.4166666666666667 0.7500000000000000 Si
atom_frac 0.9166666666666666 0.5833333333333334 0.9166666666666666 Si
atom_frac 0.9166666666666666 0.7500000000000000 0.0833333333333333 Si
atom_frac 0.9166666666666666 0.9166666666666666 0.2500000000000000 Si
atom_frac 0.9166666666666666 0.0833333333333333 0.4166666666666667 Si
atom_frac 0.9166666666666666 0.2500000000000001 0.5833333333333334 Si
atom_frac 0.0833333333333333 0.4166666666666666 0.9166666666666666 Si
atom_frac 0.0833333333333333 0.5833333333333334 0.0833333333333333 Si
atom_frac 0.0833333333333333 0.7500000000000000 0.2500000000000000 Si
atom_frac 0.0833333333333333 0.9166666666666666 0.4166666666666667 Si
atom_frac 0.0833333333333333 0.0833333333333333 0.5833333333333334 Si
atom_frac 0.0833333333333333 0.2500000000000000 0.7500000000000000 Si
atom_frac 0.2500000000000000 0.4166666666666667 0.0833333333333333 Si
atom_frac 0.2500000000000000 0.5833333333333334 0.2500000000000000 Si
atom_frac 0.2500000000000000 0.7500000000000000 0.4166666666666667 Si
atom_frac 0.2500000000000001 0.9166666666666666 0.5833333333333334 Si
atom_frac 0.2500000000000000 0.0833333333333333 0.7500000000000000 Si
atom_frac 0.2499999999999999 0.2499999999999999 0.9166666666666666 Si
atom_frac 0.5833333333333334 0.5833333333333334 0.2500000000000000 Si
atom_frac 0.5833333333333334 0.7500000000000000 0.4166666666666667 Si
atom_frac 0.5833333333333334 0.9166666666666666 0.5833333333333334 Si
atom_frac 0.5833333333333334 0.0833333333333333 0.7500000000000000 Si
atom_frac 0.5833333333333334 0.2499999999999999 0.9166666666666666 Si
atom_frac 0.5833333333333334 0.4166666666666667 0.0833333333333333 Si
atom_frac 0.7500000000000000 0.5833333333333334 0.4166666666666667 Si
atom_frac 0.7500000000000000 0.7500000000000000 0.5833333333333334 Si
atom_frac 0.7500000000000000 0.9166666666666666 0.7500000000000000 Si
atom_frac 0.7500000000000000 0.0833333333333333 0.9166666666666666 Si
atom_frac 0.7500000000000000 0.2500000000000000 0.0833333333333333 Si
atom_frac 0.7500000000000000 0.4166666666666667 0.2500000000000000 Si
atom_frac 0.9166666666666666 0.5833333333333334 0.5833333333333334 Si
atom_frac 0.9166666666666666 0.7500000000000000 0.7500000000000000 Si
atom_frac 0.9166666666666666 0.9166666666666666 0.9166666666666666 Si
atom_frac 0.9166666666666666 0.0833333333333334 0.0833333333333333 Si
atom_frac 0.9166666666666666 0.2500000000000001 0.2500000000000000 Si
atom_frac 0.9166666666666666 0.4166666666666667 0.4166666666666667 Si
atom_frac 0.0833333333333333 0.5833333333333334 0.7500000000000000 Si
atom_frac 0.0833333333333333 0.7500000000000000 0.9166666666666666 Si
atom_frac 0.0833333333333334 0.9166666666666666 0.0833333333333333 Si
atom_frac 0.0833333333333333 0.0833333333333333 0.2500000000000000 Si
atom_frac 0.0833333333333333 0.2500000000000000 0.4166666666666667 Si
atom_frac 0.0833333333333333 0.4166666666666667 0.5833333333333334 Si
atom_frac 0.2499999999999999 0.5833333333333334 0.9166666666666666 Si
atom_frac 0.2500000000000000 0.7500000000000000 0.0833333333333333 Si
atom_frac 0.2500000000000001 0.9166666666666666 0.2500000000000000 Si
atom_frac 0.2500000000000000 0.0833333333333333 0.4166666666666667 Si
atom_frac 0.2500000000000000 0.2500000000000000 0.5833333333333334 Si
atom_frac 0.2500000000000000 0.4166666666666667 0.7500000000000000 Si
atom_frac 0.4166666666666667 0.5833333333333334 0.0833333333333333 Si
atom_frac 0.4166666666666667 0.7500000000000000 0.2500000000000000 Si
atom_frac 0.4166666666666667 0.9166666666666666 0.4166666666666667 Si
atom_frac 0.4166666666666667 0.0833333333333333 0.5833333333333334 Si
atom_frac 0.4166666666666667 0.2500000000000000 0.7500000000000000 Si
atom_frac 0.4166666666666666 0.4166666666666666 0.9166666666666666 Si
atom_frac 0.1666666666666667 0.1666666666666667 0.1666666666666667 Si
atom_frac 0.1666666666666667 0.3333333333333333 0.3333333333333333 Si
atom_frac 0.1666666666666667 0.5000000000000000 0.5000000000000000 Si
atom_frac 0.1666666666666667 0.6666666666666666 0.6666666666666666 Si
atom_frac 0.1666666666666667 0.8333333333333334 0.8333333333333334 Si
atom_frac 0.1666666666666667 0.0000000000000001 0.0000000000000001 Si
atom_frac 0.3333333333333333 0.1666666666666667 0.3333333333333333 Si
atom_frac 0.3333333333333333 0.3333333333333333 0.5000000000000000 Si
atom_frac 0.3333333333333333 0.5000000000000000 0.6666666666666666 Si
atom_frac 0.3333333333333333 0.6666666666666666 0.8333333333333334 Si
atom_frac 0.3333333333333333 0.8333333333333334 0.0000000000000000 Si
atom_frac 0.3333333333333333 0.0000000000000001 0.1666666666666667 Si
atom_frac 0.5000000000000000 0.1666666666666667 0.5000000000000000 Si
atom_frac 0.5000000000000000 0.3333333333333333 0.6666666666666666 Si
atom_frac 0.5000000000000000 0.5000000000000000 0.8333333333333334 Si
atom_frac 0.5000000000000000 0.6666666666666666 0.0000000000000000 Si
atom_frac 0.5000000000000000 0.8333333333333334 0.1666666666666667 Si
atom_frac 0.5000000000000000 0.0000000000000001 0.3333333333333333 Si
atom_frac 0.6666666666666666 0.1666666666666667 0.6666666666666666 Si
atom_frac 0.6666666666666666 0.3333333333333333 0.8333333333333334 Si
atom_frac 0.6666666666666666 0.5000000000000000 0.0000000000000000 Si
atom_frac 0.6666666666666666 0.6666666666666666 0.1666666666666667 Si
atom_frac 0.6666666666666666 0.8333333333333334 0.3333333333333333 Si
atom_frac 0.6666666666666666 0.0000000000000001 0.5000000000000000 Si
atom_frac 0.8333333333333334 0.1666666666666667 0.8333333333333334 Si
atom_frac 0.8333333333333334 0.3333333333333333 0.0000000000000000 Si
atom_frac 0.8333333333333334 0.5000000000000000 0.1666666666666667 Si
atom_frac 0.8333333333333334 0.6666666666666666 0.3333333333333333 Si
atom_frac 0.8333333333333334 0.8333333333333334 0.5000000000000000 Si
atom_frac 0.8333333333333334 0.0000000000000001 0.6666666666666666 Si
atom_frac 0.0000000000000001 0.1666666666666667 0.0000000000000001 Si
atom_frac 0.0000000000000001 0.3333333333333333 0.1666666666666667 Si
atom_frac 0.0000000000000001 0.5000000000000000 0.3333333333333333 Si
atom_frac 0.0000000000000001 0.6666666666666666 0.5000000000000000 Si
atom_frac 0.0000000000000001 0.8333333333333334 0.6666666666666666 Si
atom_frac 0.0000000000000001 0.0000000000000001 0.8333333333333334 Si
atom_frac 0.3333333333333333 0.3333333333333333 0.1666666666666667 Si
atom_frac 0.3333333333333333 0.5000000000000000 0.3333333333333333 Si
atom_frac 0.3333333333333333 0.6666666666666666 0.5000000000000000 Si
atom_frac 0.3333333333333333 0.8333333333333334 0.6666666666666666 Si
atom_frac 0.3333333333333333 0.0000000000000000 0.8333333333333334 Si
atom_frac 0.3333333333333333 0.1666666666666667 0.0000000000000001 Si
atom_frac 0.5000000000000000 0.3333333333333333 0.3333333333333333 Si
atom_frac 0.5000000000000000 0.5000000000000000 0.5000000000000000 Si
atom_frac 0.5000000000000000 0.6666666666666666 0.6666666666666666 Si
atom_frac 0.5000000000000000 0.8333333333333334 0.8333333333333334 Si
atom_frac 0.5000000000000000 0.0000000000000000 0.0000000000000000 Si
atom_frac 0.5000000000000000 0.1666666666666667 0.1666666666666667 Si
atom_frac 0.6666666666666666 0.3333333333333333 0.5000000000000000 Si
atom_frac 0.6666666666666666 0.5000000000000000 0.6666666666666666 Si
atom_frac 0.6666666666666666 0.6666666666666666 0.8333333333333334 Si
atom_frac 0.6666666666666666 0.8333333333333334 0.0000000000000000 Si
atom_frac 0.6666666666666666 0.0000000000000000 0.1666666666666667 Si
atom_frac 0.6666666666666666 0.1666666666666667 0.3333333333333333 Si
atom_frac 0.8333333333333334 0.3333333333333333 0.6666666666666666 Si
atom_frac 0.8333333333333334 0.5000000000000000 0.8333333333333334 Si
atom_frac 0.8333333333333334 0.6666666666666666 0.0000000000000000 Si
atom_frac 0.8333333333333334 0.8333333333333334 0.1666666666666667 Si
atom_frac 0.8333333333333334 0.0000000000000000 0.3333333333333333 Si
atom_frac 0.8333333333333334 0.1666666666666667 0.5000000000000000 Si
atom_frac 0.0000000000000000 0.3333333333333333 0.8333333333333334 Si
atom_frac 0.0000000000000000 0.5000000000000000 0.0000000000000000 Si
atom_frac 0.0000000000000000 0.6666666666666666 0.1666666666666667 Si
atom_frac 0.0000000000000000 0.8333333333333334 0.3333333333333333 Si
atom_frac 0.0000000000000000 0.0000000000000000 0.5000000000000000 Si
atom_frac 0.0000000000000000 0.1666666666666666 0.6666666666666666 Si
atom_frac 0.1666666666666667 0.3333333333333333 0.0000000000000001 Si
atom_frac 0.1666666666666667 0.5000000000000000 0.1666666666666667 Si
atom_frac 0.1666666666666667 0.6666666666666666 0.3333333333333333 Si
atom_frac 0.1666666666666667 0.8333333333333334 0.5000000000000000 Si
atom_frac 0.1666666666666666 0.0000000000000000 0.6666666666666666 Si
atom_frac 0.1666666666666666 0.1666666666666666 0.8333333333333334 Si
atom_frac 0.5000000000000000 0.5000000000000000 0.1666666666666667 Si
atom_frac 0.5000000000000000 0.6666666666666666 0.3333333333333333 Si
atom_frac 0.5000000000000000 0.8333333333333334 0.5000000000000000 Si
atom_frac 0.5000000000000000 0.0000000000000000 0.6666666666666666 Si
atom_frac 0.5000000000000000 0.1666666666666667 0.8333333333333334 Si
atom_frac 0.5000000000000000 0.3333333333333333 0.0000000000000001 Si
atom_frac 0.6666666666666666 0.5000000000000000 0.3333333333333333 Si
atom_frac 0.6666666666666666 0.6666666666666666 0.5000000000000000 Si
atom_frac 0.6666666666666666 0.8333333333333334 0.6666666666666666 Si
atom_frac 0.6666666666666666 0.0000000000000000 0.8333333333333334 Si
atom_frac 0.6666666666666666 0.1666666666666667 0.0000000000000000 Si
atom_frac 0.6666666666666666 0.3333333333333333 0.1666666666666667 Si
atom_frac 0.8333333333333334 0.5000000000000000 0.5000000000000000 Si
atom_frac 0.8333333333333334 0.6666666666666666 0.6666666666666666 Si
atom_frac 0.8333333333333334 0.8333333333333334 0.8333333333333334 Si
atom_frac 0.8333333333333334 0.0000000000000000 0.0000000000000000 Si
atom_frac 0.8333333333333334 0.1666666666666667 0.1666666666666667 Si
atom_frac 0.8333333333333334 0.3333333333333333 0.3333333333333333 Si
atom_frac 0.0000000000000000 0.5000000000000000 0.6666666666666666 Si
atom_frac 0.0000000000000000 0.6666666666666666 0.8333333333333334 Si
atom_frac 0.0000000000000000 0.8333333333333334 0.0000000000000000 Si
atom_frac 0.0000000000000000 0.0000000000000000 0.1666666666666667 Si
atom_frac 0.0000000000000000 0.1666666666666667 0.3333333333333333 Si
atom_frac 0.0000000000000000 0.3333333333333333 0.5000000000000000 Si
atom_frac 0.1666666666666667 0.5000000000000000 0.8333333333333334 Si
atom_frac 0.1666666666666667 0.6666666666666666 0.0000000000000000 Si
atom_frac 0.1666666666666667 0.8333333333333334 0.1666666666666667 Si
atom_frac 0.1666666666666667 0.0000000000000000 0.3333333333333333 Si
atom_frac 0.1666666666666666 0.1666666666666666 0.5000000000000000 Si
atom_frac 0.1666666666666666 0.3333333333333333 0.6666666666666666 Si
atom_frac 0.3333333333333333 0.5000000000000000 0.0000000000000001 Si
atom_frac 0.3333333333333333 0.6666666666666666 0.1666666666666667 Si
atom_frac 0.3333333333333333 0.8333333333333334 0.3333333333333333 Si
atom_frac 0.3333333333333333 0.0000000000000000 0.5000000000000000 Si
atom_frac 0.3333333333333333 0.1666666666666666 0.6666666666666666 Si
atom_frac 0.3333333333333333 0.3333333333333333 0.8333333333333334 Si
